p cnf 330 426
1 0
-2 1 0
-1 2 0
-3 2 0
-3 5 6 0
-5 3 0
-6 3 0
-7 6 0
-6 7 0
-7 9 10 0
-9 7 0
-10 7 0
-11 6 0
-6 11 0
-11 13 14 0
-13 11 0
-14 11 0
-15 2 0
-16 15 0
-15 16 0
-16 18 19 20 0
-18 16 0
-19 16 0
-20 16 0
-21 15 0
-15 21 0
-22 21 0
-21 22 0
-23 21 0
-24 23 0
-25 21 0
-26 25 0
-27 21 0
-28 27 0
-27 28 0
-29 27 0
-27 29 0
-30 27 0
-27 30 0
-31 27 0
-32 21 0
-32 34 35 36 37 0
-34 32 0
-35 32 0
-36 32 0
-37 32 0
-38 21 0
-39 21 0
-39 41 42 43 0
-41 39 0
-42 39 0
-43 39 0
-44 21 0
-45 21 0
-46 21 0
-47 15 0
-48 2 0
-2 48 0
-49 48 0
-48 49 0
-50 49 0
-49 50 0
-50 52 53 54 0
-52 50 0
-53 50 0
-54 50 0
-55 49 0
-49 55 0
-56 49 0
-57 49 0
-58 49 0
-59 49 0
-59 61 62 0
-61 59 0
-62 59 0
-62 64 72 73 0
-64 62 0
-64 66 67 68 69 70 71 0
-66 64 0
-67 64 0
-68 64 0
-69 64 0
-70 64 0
-71 64 0
-72 62 0
-73 62 0
-74 49 0
-75 74 0
-76 49 0
-77 49 0
-78 49 0
-79 49 0
-80 48 0
-81 80 0
-80 81 0
-82 81 0
-83 82 0
-84 82 0
-85 48 0
-86 48 0
-86 88 89 0
-88 86 0
-89 86 0
-90 48 0
-91 90 0
-90 91 0
-92 90 0
-93 90 0
-94 93 0
-94 96 97 98 99 100 0
-96 94 0
-97 94 0
-98 94 0
-99 94 0
-100 94 0
-101 48 0
-102 101 0
-103 101 0
-104 2 0
-105 104 0
-106 104 0
-107 104 0
-108 104 0
-108 110 111 112 0
-110 108 0
-111 108 0
-112 108 0
-113 2 0
-2 113 0
-114 113 0
-113 114 0
-115 114 0
-114 115 0
-116 114 0
-114 116 0
-117 114 0
-118 114 0
-119 113 0
-113 119 0
-120 119 0
-119 120 0
-120 122 125 0
-122 120 0
-123 122 0
-124 123 0
-125 120 0
-126 119 0
-127 126 0
-128 126 0
-129 126 0
-130 126 0
-131 126 0
-126 131 0
-132 119 0
-119 132 0
-132 134 152 0
-134 132 0
-135 134 0
-134 135 0
-135 137 138 0
-137 135 0
-138 135 0
-139 138 0
-138 139 0
-140 138 0
-138 140 0
-141 140 0
-140 141 0
-142 140 0
-143 138 0
-143 145 146 147 0
-145 143 0
-146 143 0
-147 143 0
-148 134 0
-134 148 0
-148 150 151 0
-150 148 0
-151 148 0
-152 132 0
-152 154 155 156 0
-154 152 0
-155 152 0
-156 152 0
-157 119 0
-119 157 0
-158 157 0
-157 158 0
-158 160 161 162 163 164 165 166 167 168 0
-160 158 0
-161 158 0
-162 158 0
-163 158 0
-164 158 0
-165 158 0
-166 158 0
-167 158 0
-168 158 0
-169 157 0
-170 157 0
-170 172 173 174 175 176 177 178 0
-172 170 0
-173 170 0
-174 170 0
-175 170 0
-176 170 0
-177 170 0
-178 170 0
-179 113 0
-113 179 0
-179 181 182 183 184 0
-181 179 0
-182 179 0
-183 179 0
-184 179 0
-113 186 0
-186 113 0
-187 186 0
-186 187 0
-188 186 0
-189 2 0
-189 191 193 194 201 0
-191 189 0
-192 191 0
-193 189 0
-194 189 0
-195 194 0
-194 195 0
-195 197 198 199 0
-197 195 0
-198 195 0
-199 195 0
-200 194 0
-201 189 0
-201 203 204 0
-203 201 0
-204 201 0
-205 2 0
-206 205 0
-205 206 0
-206 208 209 210 0
-208 206 0
-209 206 0
-210 206 0
-211 1 0
-1 211 0
-212 211 0
-211 212 0
-213 212 0
-212 213 0
-213 215 235 238 0
-215 213 0
-216 215 0
-215 216 0
-217 215 0
-215 217 0
-217 219 228 0
-219 217 0
-220 219 0
-219 220 0
-221 220 0
-220 221 0
-222 220 0
-222 224 225 226 227 0
-224 222 0
-225 222 0
-226 222 0
-227 222 0
-228 217 0
-228 230 231 232 233 234 0
-230 228 0
-231 228 0
-232 228 0
-233 228 0
-234 228 0
-235 213 0
-236 235 0
-235 236 0
-237 235 0
-235 237 0
-238 213 0
-239 238 0
-240 238 0
-241 211 0
-242 241 0
-241 242 0
-242 244 245 246 247 248 249 250 251 252 0
-244 242 0
-245 242 0
-246 242 0
-247 242 0
-248 242 0
-249 242 0
-250 242 0
-251 242 0
-252 242 0
-253 241 0
-241 253 0
-253 255 267 286 0
-255 253 0
-256 255 0
-255 256 0
-256 258 259 0
-258 256 0
-259 256 0
-260 255 0
-255 260 0
-260 262 263 0
-262 260 0
-263 260 0
-264 263 0
-263 264 0
-265 255 0
-266 255 0
-267 253 0
-268 267 0
-267 268 0
-269 268 0
-268 269 0
-270 268 0
-268 270 0
-271 268 0
-272 267 0
-267 272 0
-272 274 275 276 0
-274 272 0
-275 272 0
-276 272 0
-277 267 0
-267 277 0
-278 277 0
-279 277 0
-280 267 0
-267 280 0
-280 282 283 0
-282 280 0
-283 280 0
-284 267 0
-285 267 0
-267 285 0
-286 253 0
-286 288 289 291 0
-288 286 0
-289 286 0
-290 289 0
-289 290 0
-291 286 0
-292 291 0
-291 292 0
-293 241 0
-241 293 0
-293 295 296 297 0
-295 293 0
-296 293 0
-297 293 0
-298 297 0
-299 297 0
-300 241 0
-301 211 0
-302 301 0
-301 302 0
-303 301 0
-301 303 0
-304 211 0
-305 304 0
-306 211 0
-307 306 0
-306 307 0
-308 307 0
-307 308 0
-309 307 0
-310 309 0
-309 310 0
-311 211 0
-312 311 0
-311 312 0
-313 311 0
-311 313 0
-314 311 0
-311 314 0
-315 211 0
-315 317 318 319 320 0
-317 315 0
-318 315 0
-319 315 0
-320 315 0
-321 211 0
-211 321 0
-322 321 0
-321 322 0
-323 322 0
-322 323 0
-324 322 0
-322 324 0
-325 322 0
-322 325 0
-326 322 0
-327 321 0
-321 327 0
-328 327 0
-327 328 0
-329 327 0
-327 329 0
-330 327 0
-327 330 0
-104 105 0
15 105 0
-52 76 0
-53 76 0
-52 235 0
-47 205 0
-123 45 0
-244 39 0
-54 238 0
-53 215 0
-249 104 0
-122 19 0
-122 16 0
-126 217 0
-250 208 209 0
-10 267 0
-78 304 0
-53 77 0
-92 80 0
-108 15 0
-106 15 0